(declare-fun bvlambda_7_ () (_ BitVec 2))
(declare-fun bvlambda_8_ () (_ BitVec 1))
(declare-fun bvlambda_9_ () (_ BitVec 1))
(declare-fun bvlambda_10_ () (_ BitVec 3))
(declare-fun a47 () (Array (_ BitVec 16) (_ BitVec 5)))
(declare-fun a48 () (Array (_ BitVec 1) (_ BitVec 12)))
(declare-fun a49 () (Array (_ BitVec 10) (_ BitVec 16)))
(assert
(let (($e1 (_ bv0 1)))
(let (($e9 (_ bv0 9)))
(let (($e16 (_ bv0 10)))
(let (($e17 (_ bv0 5)))
(let (($e24 (_ bv0 8)))
(let (($e50 (concat $e9 bvlambda_9_)))
(let (($e51 (concat $e50 bvlambda_10_)))
(let (($e52 (concat $e51 bvlambda_7_)))
(let (($e53 (concat $e52 bvlambda_8_)))
(let (($e54 (select a47 $e53)))
(let (($e126 (concat $e17 bvlambda_9_)))
(let (($e127 (concat $e126 bvlambda_10_)))
(let (($e128 (concat $e127 bvlambda_7_)))
(let (($e129 (concat $e128 bvlambda_8_)))
(let (($e130 (store a48 $e1 $e129)))
(let (($e133        a48                  ))
(let (($e289 (select a49 $e16)))
(let (($e290 (   extract      $e289)))
(let (($e291 (select $e130 $e290)))
(let (($e293 (select a48 (bvnot $e1))))
(let (($e294 (   extract      $e54)))
(let (($e295 (store $e133 $e294 $e293)))
(let (($e296 (select $e295 $e1)))
(let (($e298              $e291 ))
(let (($e299        $e298                             ))
(let (($e300 (   extract        $e299)))
(let (($e301 ((_ extract 11 4) $e296)))
(let (($e302      (= $e24 $e301)         ))
             (bvand $e302 $e300)
                                                                                                                                          ))))) )))) )))                                                                                                                                                           )  )))))                                                                       )))))     )      ))      )       ))
